3 19 1
3 9 1 6 1 6 1 6 2 4 2 4 2 4 3 2 3 2 3 2 6 1 6 1 6 1 6 2 4 2 4 2 4 6 3 2 3 2 3 2 1 6 1 6 1 6
17 6 1 18 1 18 1 18 2 18 2 18 2 18 6 3 19 3 19 3 19 4 19 4 19 4 19 6 3 19 3 19 3 19 4 19 4 19 4 19 6 3 19 3 19 3 19 4 19 4 19 4 19 6 3 19 3 19 3 19 4 19 4 19 4 19 6 3 19 3 19 3 19 4 19 4 19 4 19 6 3 19 3 19 3 19 4 19 4 19 4 19 6 3 19 3 19 3 19 4 19 4 19 4 19 6 3 19 3 19 3 19 4 19 4 19 4 19 6 3 19 3 19 3 19 4 19 4 19 4 19 6 3 19 3 19 3 19 4 19 4 19 4 19 6 3 19 3 19 3 19 4 19 4 19 4 19 6 3 19 3 19 3 19 4 19 4 19 4 19 6 3 19 3 19 3 19 4 19 4 19 4 19 6 3 19 3 19 3 19 4 19 4 19 4 19 6 3 19 3 19 3 19 4 19 4 19 4 19 6 3 19 3 19 3 19 4 19 4 19 4 19
3 6 1 12 1 12 1 12 2 12 2 12 2 12 6 3 12 3 12 3 12 1 12 1 12 1 12 6 3 12 3 12 3 12 1 12 1 12 1 12
